100
126
248
288
342
243
396
68
102
360
180
470
108
25
301
128
49
195
56
315
210
156
328
93
336
74
234
440
66
50
400
174
184
72
25
42
62
392
380
81
270
68
204
287
90
141
148
234
43
64
200
312
28
138
35
520
378
62
480
185
27
88
165
357
400
203
94
144
175
43
256
392
114
224
135
34
260
246
30
480
333
26
308
132
300
156
116
184
210
25
84
217
147
266
81
264
68
51
200
